set VV := 0 1 2 3 4 5 6 7 8 9 10 11 12 13 14 15 16 17 18 19 20 21 22 23 24 25 26 27 28 29 30 31 32 33 34 35 36 37 38 ;
set VS := 0 1 2 3 4 5 6 7 8 9 10 11 12 13 14 15 16 17 18 19 20 21 22 23 24 25 26 27 28 29 30 31 32 33 34 35 36 37 38 39 40 41 42 43 44 45 46 47 48 49 50 51 52 53 54 55 56 57 58 59 60 61 62 63 64 65 66 67 68 69 70 71 72 73 74 75 76 77 78 79 80 81 82 ;
param cv := 
0 25
1 16
2 21
3 10
4 23
5 11
6 23
7 11
8 24
9 20
10 25
11 22
12 11
13 24
14 19
15 13
16 21
17 14
18 11
19 11
20 13
21 12
22 22
23 14
24 12
25 18
26 15
27 17
28 25
29 16
30 16
31 11
32 15
33 25
34 22
35 23
36 21
37 17
38 18
;
param cs := 
0 20
1 34
2 29
3 27
4 31
5 25
6 37
7 31
8 25
9 36
10 23
11 32
12 26
13 39
14 26
15 33
16 30
17 23
18 35
19 33
20 31
21 34
22 22
23 21
24 29
25 20
26 31
27 28
28 37
29 29
30 28
31 27
32 33
33 23
34 38
35 28
36 33
37 25
38 40
39 40
40 40
41 24
42 39
43 30
44 34
45 34
46 31
47 21
48 32
49 23
50 23
51 25
52 37
53 38
54 27
55 24
56 32
57 34
58 30
59 40
60 26
61 23
62 28
63 29
64 23
65 32
66 39
67 30
68 35
69 31
70 21
71 27
72 22
73 26
74 38
75 24
76 22
77 29
78 21
79 31
80 35
81 29
82 22
;
param bv:	 0 1 2 3 4 5 6 7 8 9 10 11 12 13 14 15 16 17 18 19 20 21 22 23 24 25 26 27 28 29 30 31 32 33 34 35 36 37 38 := 
		0 0 0 24 0 0 0 0 0 0 0 0 0 18 0 13 0 0 0 0 0 0 0 0 0 0 0 0 17 0 0 0 0 0 0 0 0 0 0 15 
		1 0 0 0 0 0 0 0 0 0 0 0 0 0 0 0 20 0 18 0 0 0 25 0 0 16 0 0 0 0 0 0 0 0 0 0 0 0 0 0 
		2 0 0 0 0 0 0 0 0 0 0 0 0 0 0 0 15 0 0 0 0 0 0 0 0 0 0 0 0 0 0 0 0 0 0 0 0 0 0 0 
		3 0 0 0 0 0 0 0 17 16 0 0 0 0 0 0 0 0 0 0 0 0 0 0 0 0 20 0 11 0 0 0 13 17 0 0 0 0 0 0 
		4 0 0 0 0 0 0 11 0 0 18 0 0 0 0 0 0 0 0 0 0 0 0 0 0 0 0 0 0 0 0 0 0 0 0 0 0 12 0 0 
		5 0 0 0 0 0 0 0 0 0 10 0 11 0 0 0 0 0 0 0 0 0 0 24 16 0 14 0 0 12 0 0 0 0 0 0 0 0 0 0 
		6 0 0 0 0 0 0 0 0 0 0 0 0 0 0 0 13 0 0 0 0 0 0 0 0 0 0 0 0 0 0 0 0 0 0 0 17 0 0 0 
		7 0 0 0 0 0 0 0 0 0 0 0 0 0 0 11 0 0 0 14 0 0 0 0 0 0 0 0 0 0 0 0 0 0 0 0 0 0 0 0 
		8 0 0 0 0 0 0 0 0 0 0 0 0 0 0 0 0 0 0 0 0 11 0 0 0 25 0 0 0 0 0 0 0 0 0 0 12 0 0 0 
		9 0 0 0 0 0 0 0 0 0 0 19 0 0 0 0 0 0 0 19 0 0 0 0 0 0 0 0 0 0 0 0 0 25 0 0 0 0 0 0 
		10 0 0 0 0 0 0 0 0 0 0 0 17 0 0 0 0 15 0 0 0 0 0 0 0 0 0 0 0 0 0 0 0 0 0 0 0 0 0 0 
		11 0 0 0 0 0 0 0 0 0 0 0 0 0 0 0 0 11 0 0 0 0 0 0 0 0 0 0 0 0 0 23 0 0 12 0 0 0 24 15 
		12 0 0 0 0 0 0 0 0 0 0 0 0 0 0 0 0 0 19 0 0 0 0 0 0 0 0 0 0 0 17 0 0 0 0 0 14 0 0 13 
		13 0 0 0 0 0 0 0 0 0 0 0 0 0 0 0 0 0 0 0 0 23 0 0 0 0 0 0 0 0 0 0 0 0 0 20 0 0 0 15 
		14 0 0 0 0 0 0 0 0 0 0 0 0 0 0 0 21 0 0 0 0 0 0 0 0 0 0 0 15 0 0 0 0 0 0 0 0 0 0 0 
		15 0 0 0 0 0 0 0 0 0 0 0 0 0 0 0 0 25 0 0 0 0 0 0 0 0 0 0 0 0 0 0 0 0 0 0 18 11 0 12 
		16 0 0 0 0 0 0 0 0 0 0 0 0 0 0 0 0 0 0 0 0 0 0 0 0 0 0 0 0 0 0 0 0 0 15 0 0 10 0 0 
		17 0 0 0 0 0 0 0 0 0 0 0 0 0 0 0 0 0 0 24 0 0 0 0 0 0 11 0 0 0 0 0 0 0 0 0 14 0 0 0 
		18 0 0 0 0 0 0 0 0 0 0 0 0 0 0 0 0 0 0 0 0 0 0 0 12 0 0 0 0 0 0 0 0 0 0 0 0 20 0 0 
		19 0 0 0 0 0 0 0 0 0 0 0 0 0 0 0 0 0 0 0 0 0 0 0 0 0 14 21 0 0 0 18 0 10 0 0 0 21 0 0 
		20 0 0 0 0 0 0 0 0 0 0 0 0 0 0 0 0 0 0 0 0 0 0 0 0 0 0 0 0 0 18 18 0 0 12 0 0 0 0 0 
		21 0 0 0 0 0 0 0 0 0 0 0 0 0 0 0 0 0 0 0 0 0 0 0 21 0 0 0 0 0 0 0 0 0 0 0 11 0 0 0 
		22 0 0 0 0 0 0 0 0 0 0 0 0 0 0 0 0 0 0 0 0 0 0 0 0 0 22 0 0 0 18 0 0 0 11 0 0 0 0 0 
		23 0 0 0 0 0 0 0 0 0 0 0 0 0 0 0 0 0 0 0 0 0 0 0 0 0 0 0 0 18 0 0 0 0 0 0 0 0 0 24 
		24 0 0 0 0 0 0 0 0 0 0 0 0 0 0 0 0 0 0 0 0 0 0 0 0 0 0 0 0 0 0 0 0 0 0 0 0 0 0 0 
		25 0 0 0 0 0 0 0 0 0 0 0 0 0 0 0 0 0 0 0 0 0 0 0 0 0 0 0 0 0 0 0 0 25 0 0 0 0 0 0 
		26 0 0 0 0 0 0 0 0 0 0 0 0 0 0 0 0 0 0 0 0 0 0 0 0 0 0 0 0 0 0 0 0 0 0 19 0 0 16 0 
		27 0 0 0 0 0 0 0 0 0 0 0 0 0 0 0 0 0 0 0 0 0 0 0 0 0 0 0 0 0 0 0 0 0 0 0 0 12 0 0 
		28 0 0 0 0 0 0 0 0 0 0 0 0 0 0 0 0 0 0 0 0 0 0 0 0 0 0 0 0 0 0 0 0 0 0 0 0 0 0 0 
		29 0 0 0 0 0 0 0 0 0 0 0 0 0 0 0 0 0 0 0 0 0 0 0 0 0 0 0 0 0 0 0 0 0 13 0 0 0 0 0 
		30 0 0 0 0 0 0 0 0 0 0 0 0 0 0 0 0 0 0 0 0 0 0 0 0 0 0 0 0 0 0 0 0 20 16 0 0 0 0 0 
		31 0 0 0 0 0 0 0 0 0 0 0 0 0 0 0 0 0 0 0 0 0 0 0 0 0 0 0 0 0 0 0 0 0 0 11 0 0 0 0 
		32 0 0 0 0 0 0 0 0 0 0 0 0 0 0 0 0 0 0 0 0 0 0 0 0 0 0 0 0 0 0 0 0 0 0 0 0 0 0 0 
		33 0 0 0 0 0 0 0 0 0 0 0 0 0 0 0 0 0 0 0 0 0 0 0 0 0 0 0 0 0 0 0 0 0 0 0 0 0 0 0 
		34 0 0 0 0 0 0 0 0 0 0 0 0 0 0 0 0 0 0 0 0 0 0 0 0 0 0 0 0 0 0 0 0 0 0 0 0 0 0 0 
		35 0 0 0 0 0 0 0 0 0 0 0 0 0 0 0 0 0 0 0 0 0 0 0 0 0 0 0 0 0 0 0 0 0 0 0 0 0 0 0 
		36 0 0 0 0 0 0 0 0 0 0 0 0 0 0 0 0 0 0 0 0 0 0 0 0 0 0 0 0 0 0 0 0 0 0 0 0 0 25 0 
		37 0 0 0 0 0 0 0 0 0 0 0 0 0 0 0 0 0 0 0 0 0 0 0 0 0 0 0 0 0 0 0 0 0 0 0 0 0 0 0 
		38 0 0 0 0 0 0 0 0 0 0 0 0 0 0 0 0 0 0 0 0 0 0 0 0 0 0 0 0 0 0 0 0 0 0 0 0 0 0 0 
;
param bs:	 0 1 2 3 4 5 6 7 8 9 10 11 12 13 14 15 16 17 18 19 20 21 22 23 24 25 26 27 28 29 30 31 32 33 34 35 36 37 38 39 40 41 42 43 44 45 46 47 48 49 50 51 52 53 54 55 56 57 58 59 60 61 62 63 64 65 66 67 68 69 70 71 72 73 74 75 76 77 78 79 80 81 82 := 
		0 0 0 0 0 0 0 0 0 0 0 0 0 0 0 0 0 0 0 0 31 0 0 0 0 0 0 0 0 40 0 0 0 0 0 0 0 0 0 0 0 0 0 0 0 0 0 40 0 0 0 0 30 0 0 0 0 0 0 0 0 29 0 0 0 0 0 0 0 0 0 27 0 0 0 0 0 0 0 0 0 0 33 0 
		1 0 0 0 0 0 0 0 0 0 0 0 0 0 0 0 0 0 33 0 0 0 0 0 0 0 0 0 0 0 0 0 0 0 0 24 0 0 0 0 0 0 0 0 0 0 0 0 0 0 0 0 0 0 0 0 0 0 0 0 0 0 0 0 0 0 0 0 0 0 0 35 0 39 0 0 0 0 0 0 0 0 0 0 
		2 0 0 0 0 0 0 40 0 20 37 0 0 37 0 0 0 38 0 0 0 0 0 0 0 0 0 0 0 0 0 0 0 0 0 0 0 0 0 0 0 0 0 0 0 0 0 0 0 38 0 0 0 0 0 0 0 0 33 0 0 0 0 0 0 0 0 0 0 20 33 0 0 0 35 0 0 0 0 0 0 32 40 0 
		3 0 0 0 0 39 0 0 34 0 0 0 0 27 0 0 0 0 0 0 30 0 0 0 0 0 33 0 0 0 0 0 28 25 0 0 0 0 21 0 0 29 0 0 28 0 0 0 0 0 0 0 0 0 0 0 0 0 0 0 0 0 0 0 0 0 0 0 0 0 37 0 0 0 23 0 0 0 0 0 0 29 0 0 
		4 0 0 0 39 0 0 0 0 0 0 0 0 0 0 24 35 0 0 0 0 0 0 37 0 0 0 0 0 25 0 0 0 0 21 0 33 0 0 0 0 0 0 0 24 0 0 0 0 0 0 0 20 0 0 35 0 0 35 0 0 0 25 0 0 0 0 0 0 31 0 0 0 0 0 0 0 0 0 0 0 0 0 0 
		5 0 0 0 0 0 0 0 32 30 0 0 0 0 0 0 0 0 0 0 0 0 0 0 0 0 0 0 0 0 0 0 0 0 0 0 0 0 0 0 0 0 0 0 0 0 0 0 0 0 0 0 0 0 0 0 0 0 0 0 0 0 0 0 0 0 0 0 0 0 40 0 0 0 0 0 0 0 0 0 0 0 0 0 
		6 0 0 40 0 0 0 0 0 0 0 0 0 37 28 0 0 0 0 0 34 0 22 0 0 0 0 0 21 0 0 0 0 0 0 33 0 0 0 0 0 0 30 0 0 0 0 0 0 0 0 0 0 0 0 0 0 0 0 0 26 0 0 0 0 0 0 0 0 0 0 0 28 0 0 0 0 0 0 0 0 22 0 40 
		7 0 0 0 34 0 32 0 0 0 0 0 0 0 0 0 0 0 0 0 0 39 0 0 0 0 0 0 0 39 0 0 0 0 0 0 0 0 0 0 0 0 0 0 0 0 0 0 40 0 0 0 0 0 0 0 0 29 0 0 0 0 0 0 0 0 0 0 0 0 0 0 0 40 0 0 0 0 32 0 39 0 0 0 
		8 0 0 20 0 0 30 0 0 0 26 0 0 0 29 0 0 0 0 0 37 0 0 0 0 0 0 0 0 0 0 0 0 0 0 36 0 0 0 0 0 0 0 0 0 0 0 0 0 0 0 0 23 0 0 0 0 0 0 0 29 0 0 0 0 0 0 38 0 0 39 26 21 0 0 0 0 27 0 29 0 0 0 0 
		9 0 0 37 0 0 0 0 0 26 0 0 0 34 0 0 0 0 0 0 0 0 0 0 0 26 0 29 0 0 0 0 0 0 0 0 0 0 0 0 0 0 0 0 0 26 0 0 0 0 0 0 0 0 0 0 38 0 0 39 0 0 0 0 38 0 0 0 0 0 0 21 0 0 0 0 0 0 0 0 0 0 0 24 
		10 0 0 0 0 0 0 0 0 0 0 0 31 0 0 0 0 0 0 0 0 0 0 0 0 0 0 0 0 0 0 0 0 0 0 0 0 38 30 0 0 0 0 0 0 0 0 0 0 0 0 0 0 0 0 0 0 0 0 25 0 0 0 0 0 0 0 23 0 0 0 0 0 0 0 0 0 0 0 0 0 0 0 0 
		11 0 0 0 0 0 0 0 0 0 0 31 0 0 0 0 0 0 0 0 23 0 0 0 0 30 0 26 0 0 25 0 0 31 36 0 0 0 0 0 31 0 0 0 0 0 0 0 0 40 0 0 0 0 0 0 0 0 0 0 0 0 0 0 0 0 0 21 0 0 0 0 0 0 0 0 0 0 0 27 0 20 0 0 
		12 0 0 37 27 0 0 37 0 0 34 0 0 0 0 0 25 0 0 0 0 0 0 0 0 0 0 0 0 0 0 0 0 0 0 0 0 21 0 0 0 0 0 0 0 26 0 0 0 0 0 0 0 0 0 0 0 0 0 0 0 0 30 0 0 0 0 24 0 0 0 0 0 0 0 0 0 0 0 0 0 0 0 0 
		13 0 0 0 0 0 0 28 0 29 0 0 0 0 0 26 0 0 0 0 0 0 0 0 0 0 0 0 0 0 0 0 0 0 0 0 0 0 0 0 0 0 0 0 0 0 0 0 0 0 0 0 0 0 0 0 0 0 0 0 0 0 0 0 0 0 0 0 0 0 0 0 0 0 0 0 0 0 0 35 0 0 0 24 
		14 0 0 0 0 24 0 0 0 0 0 0 0 0 26 0 0 0 0 0 0 0 0 0 0 0 0 0 0 0 0 0 0 0 0 0 0 22 0 0 0 0 0 29 0 26 0 25 0 0 0 32 0 0 0 0 0 0 0 0 0 0 0 21 0 0 0 0 0 0 0 0 0 0 0 0 0 36 0 0 0 0 27 25 
		15 0 0 0 0 35 0 0 0 0 0 0 0 25 0 0 0 0 22 0 0 0 0 0 0 0 0 20 0 0 0 0 33 0 0 0 0 23 0 0 0 0 0 0 25 0 0 0 0 0 0 0 0 0 0 0 26 0 0 27 0 0 39 0 39 0 0 0 0 0 0 0 0 0 26 0 0 27 0 0 0 0 30 0 
		16 0 0 38 0 0 0 0 0 0 0 0 0 0 0 0 0 0 29 0 0 33 0 0 0 0 0 0 0 0 0 0 0 0 0 0 0 0 0 0 37 0 0 0 0 0 0 0 0 0 0 0 0 0 0 0 33 0 0 23 0 0 0 0 0 0 0 0 26 0 0 0 0 0 0 0 0 0 0 0 0 28 0 0 
		17 0 33 0 0 0 0 0 0 0 0 0 0 0 0 0 22 29 0 0 0 0 0 27 0 0 0 0 0 0 0 30 29 0 0 0 24 0 38 0 0 0 0 0 0 0 0 0 0 0 0 0 0 0 0 0 0 0 0 0 0 0 0 0 0 0 0 0 0 0 0 0 0 0 0 0 0 0 0 0 0 0 0 0 
		18 0 0 0 0 0 0 0 0 0 0 0 0 0 0 0 0 0 0 0 0 0 0 0 0 0 0 0 0 0 0 0 0 0 0 0 0 0 0 0 0 0 28 0 22 0 0 0 0 0 0 40 25 0 0 0 0 0 0 0 0 0 40 0 0 30 0 0 0 0 23 25 0 0 0 0 0 0 0 0 0 0 0 0 
		19 31 0 0 30 0 0 34 0 37 0 0 23 0 0 0 0 0 0 0 0 0 0 35 0 0 35 0 0 0 0 0 0 0 0 0 0 0 0 0 0 0 0 0 0 0 0 0 0 0 0 0 0 0 0 0 0 34 26 0 0 0 0 0 0 0 0 0 0 26 0 0 0 36 0 0 0 0 0 0 0 0 38 0 
		20 0 0 0 0 0 0 0 39 0 0 0 0 0 0 0 0 33 0 0 0 0 0 0 0 0 0 0 0 0 0 0 21 0 0 0 0 0 0 0 0 0 0 0 0 0 36 0 31 0 0 0 0 0 0 0 0 0 0 0 0 0 0 0 0 0 0 20 0 0 0 0 0 0 0 0 0 0 0 0 25 0 0 0 
		21 0 0 0 0 0 0 22 0 0 0 0 0 0 0 0 0 0 0 0 0 0 0 0 0 0 0 0 0 0 0 0 27 0 0 20 0 0 0 26 0 0 21 0 0 0 0 0 36 0 0 0 0 0 0 35 0 29 40 0 0 0 0 0 0 0 0 0 0 0 0 0 0 35 0 0 0 32 0 0 0 0 0 0 
		22 0 0 0 0 37 0 0 0 0 0 0 0 0 0 0 0 0 27 0 35 0 0 0 0 0 0 0 0 0 0 0 0 0 0 0 0 0 0 0 0 0 0 0 0 0 0 0 0 0 0 0 0 0 0 0 0 38 0 0 0 0 0 0 0 0 0 36 0 0 0 20 0 0 0 0 0 33 0 0 0 0 0 0 
		23 0 0 0 0 0 0 0 0 0 0 0 0 0 0 0 0 0 0 0 0 0 0 0 0 0 0 0 0 0 0 0 0 0 0 0 0 30 0 0 0 21 0 0 0 0 35 0 0 0 0 0 0 0 0 0 0 0 0 0 0 0 0 0 0 0 0 0 0 0 0 0 0 0 0 0 30 0 0 0 0 0 0 0 
		24 0 0 0 0 0 0 0 0 0 26 0 30 0 0 0 0 0 0 0 0 0 0 0 0 0 0 0 0 0 0 0 34 0 0 0 0 0 0 0 0 0 0 35 0 0 0 0 0 0 0 0 0 0 0 0 0 37 0 30 0 0 0 0 0 0 0 22 0 0 0 0 0 0 32 0 0 0 0 0 0 0 0 0 
		25 0 0 0 33 0 0 0 0 0 0 0 0 0 0 0 0 0 0 0 35 0 0 0 0 0 0 0 0 0 0 36 0 32 0 0 0 0 0 0 0 0 0 0 0 0 0 0 0 0 0 0 0 0 0 0 0 0 0 27 0 0 0 0 0 0 0 0 0 0 0 0 0 0 0 0 0 0 0 0 0 0 20 0 
		26 0 0 0 0 0 0 0 0 0 29 0 26 0 0 0 20 0 0 0 0 0 0 0 0 0 0 0 0 0 28 0 0 0 0 0 0 0 0 24 0 0 0 0 39 0 0 0 0 0 0 0 0 0 0 0 0 0 0 0 31 0 0 0 0 0 0 28 0 0 0 0 0 0 0 0 0 0 0 28 0 0 0 0 
		27 0 0 0 0 0 0 21 0 0 0 0 0 0 0 0 0 0 0 0 0 0 0 0 0 0 0 0 0 0 0 0 0 0 0 30 0 0 0 0 0 21 0 0 0 0 0 0 0 0 37 0 0 0 39 0 0 0 0 0 0 0 0 0 0 0 0 0 30 38 0 0 0 0 0 0 21 0 0 0 0 0 0 0 
		28 40 0 0 0 25 0 0 39 0 0 0 0 0 0 0 0 0 0 0 0 0 0 0 0 0 0 0 0 0 0 0 0 0 35 0 0 0 0 0 0 0 32 0 0 0 0 0 26 0 0 0 40 0 0 0 0 0 0 0 0 0 0 0 0 0 0 0 0 0 0 0 0 0 0 0 0 0 0 0 0 0 0 0 
		29 0 0 0 0 0 0 0 0 0 0 0 25 0 0 0 0 0 0 0 0 0 0 0 0 0 0 28 0 0 0 0 0 0 0 32 0 0 0 0 37 0 0 0 0 0 0 0 0 39 0 0 0 31 0 0 0 0 0 0 0 0 0 0 0 0 0 28 29 0 0 0 0 0 0 0 0 0 0 0 23 24 0 0 
		30 0 0 0 0 0 0 0 0 0 0 0 0 0 0 0 0 0 30 0 0 0 0 0 0 0 36 0 0 0 0 0 0 0 0 0 0 0 33 0 0 0 0 0 0 0 0 0 39 0 0 0 0 0 0 0 0 0 0 0 24 0 0 0 0 0 0 0 0 39 0 0 0 0 0 0 0 0 0 0 0 0 0 0 
		31 0 0 0 28 0 0 0 0 0 0 0 0 0 0 0 33 0 29 0 0 21 27 0 0 34 0 0 0 0 0 0 0 0 0 29 0 0 0 0 0 0 0 0 0 0 0 0 34 0 22 0 0 0 0 0 0 0 20 0 0 0 0 24 0 0 0 0 0 0 0 0 0 33 0 0 33 27 0 0 0 0 0 0 
		32 0 0 0 25 0 0 0 0 0 0 0 31 0 0 0 0 0 0 0 0 0 0 0 0 0 32 0 0 0 0 0 0 0 0 0 0 0 0 21 0 31 0 34 38 0 38 0 0 24 0 0 38 0 0 0 37 0 0 30 0 0 0 29 0 0 33 38 0 0 0 0 0 0 0 0 0 28 0 0 0 0 0 0 
		33 0 0 0 0 21 0 0 0 0 0 0 36 0 0 0 0 0 0 0 0 0 0 0 0 0 0 0 0 35 0 0 0 0 0 0 0 0 0 0 0 0 0 0 0 0 0 0 0 0 0 0 0 0 0 0 0 0 0 0 27 37 0 0 0 0 0 0 0 0 36 0 0 0 0 0 0 0 0 0 0 0 0 0 
		34 0 24 0 0 0 0 33 0 36 0 0 0 0 0 0 0 0 0 0 0 0 20 0 0 0 0 0 30 0 32 0 29 0 0 0 0 0 0 37 0 0 0 0 0 0 0 0 23 0 0 0 0 0 0 0 0 28 0 0 0 0 0 0 0 0 0 0 0 0 0 0 0 0 0 32 21 0 0 0 0 0 40 0 
		35 0 0 0 0 33 0 0 0 0 0 0 0 0 0 0 0 0 24 0 0 0 0 0 0 0 0 0 0 0 0 0 0 0 0 0 0 0 0 0 0 0 0 0 0 0 0 0 0 0 0 0 0 0 0 36 0 0 0 0 0 0 0 0 0 0 0 0 24 0 0 0 0 0 0 0 0 0 0 0 0 0 38 0 
		36 0 0 0 0 0 0 0 0 0 0 38 0 21 0 22 23 0 0 0 0 0 0 0 30 0 0 0 0 0 0 0 0 0 0 0 0 0 0 0 0 0 0 0 0 0 0 0 0 0 0 0 0 0 0 0 0 0 0 0 0 0 0 0 0 0 0 28 0 0 0 0 40 0 0 0 0 0 0 0 0 32 0 0 
		37 0 0 0 21 0 0 0 0 0 0 30 0 0 0 0 0 0 38 0 0 0 0 0 0 0 0 0 0 0 0 33 0 0 0 0 0 0 0 0 0 0 0 0 0 0 0 0 0 0 0 0 0 0 0 0 0 0 0 0 0 0 0 0 0 0 0 0 0 0 0 0 0 0 0 0 0 0 39 0 0 0 0 0 
		38 0 0 0 0 0 0 0 0 0 0 0 0 0 0 0 0 0 0 0 0 0 26 0 0 0 0 24 0 0 0 0 0 21 0 37 0 0 0 0 0 0 0 39 0 0 0 0 0 0 28 0 0 31 0 0 0 0 0 30 0 0 21 0 0 0 0 0 0 0 0 0 0 0 0 0 0 0 0 37 0 0 0 0 
		39 0 0 0 0 0 0 0 0 0 0 0 31 0 0 0 0 37 0 0 0 0 0 0 0 0 0 0 0 0 37 0 0 0 0 0 0 0 0 0 0 0 0 0 0 0 0 0 0 0 0 0 0 0 0 0 0 0 0 0 0 0 0 0 0 0 38 0 0 0 0 0 0 0 0 0 0 0 0 0 0 0 0 0 
		40 0 0 0 29 0 0 0 0 0 0 0 0 0 0 0 0 0 0 0 0 0 0 0 21 0 0 0 21 0 0 0 0 31 0 0 0 0 0 0 0 0 0 0 0 0 30 0 0 0 0 0 0 0 0 0 0 24 0 0 0 0 0 0 0 0 0 0 25 0 0 0 0 0 0 0 35 34 0 0 0 0 0 0 
		41 0 0 0 0 0 0 30 0 0 0 0 0 0 0 0 0 0 0 28 0 0 21 0 0 0 0 0 0 32 0 0 0 0 0 0 0 0 0 0 0 0 0 0 0 0 0 0 0 0 0 25 21 0 0 0 0 0 0 0 0 0 0 0 0 0 0 37 0 0 0 0 0 0 0 0 0 22 0 0 0 0 0 0 
		42 0 0 0 0 0 0 0 0 0 0 0 0 0 0 29 0 0 0 0 0 0 0 0 0 35 0 0 0 0 0 0 0 34 0 0 0 0 0 39 0 0 0 0 0 0 0 0 0 0 23 0 0 39 0 0 20 0 28 0 0 0 0 0 0 0 0 0 0 32 0 0 0 0 0 34 22 35 0 0 0 0 0 0 
		43 0 0 0 28 24 0 0 0 0 0 0 0 0 0 0 25 0 0 22 0 0 0 0 0 0 0 39 0 0 0 0 0 38 0 0 0 0 0 0 0 0 0 0 0 0 0 0 0 0 0 0 32 0 0 0 0 28 0 0 35 0 0 0 0 0 0 0 0 0 0 22 0 0 35 0 0 0 0 21 0 0 0 0 
		44 0 0 0 0 0 0 0 0 0 26 0 0 26 0 26 0 0 0 0 0 0 0 0 0 0 0 0 0 0 0 0 0 0 0 0 0 0 0 0 0 0 0 0 0 0 0 0 0 0 0 0 24 0 0 0 0 0 0 0 36 0 0 0 23 0 0 26 0 0 0 0 0 0 0 0 38 0 0 28 0 35 33 0 
		45 0 0 0 0 0 0 0 0 0 0 0 0 0 0 0 0 0 0 0 0 36 0 0 35 0 0 0 0 0 0 0 0 38 0 0 0 0 0 0 0 30 0 0 0 0 0 0 0 0 0 0 0 0 0 0 0 0 0 0 0 0 0 0 0 0 0 0 0 0 0 0 0 0 0 0 0 0 0 35 0 0 0 0 
		46 40 0 0 0 0 0 0 0 0 0 0 0 0 0 25 0 0 0 0 0 0 0 0 0 0 0 0 0 0 0 0 0 0 0 0 0 0 0 0 0 0 0 0 0 0 0 0 0 28 0 0 0 0 31 0 0 33 0 0 0 0 0 0 0 0 0 0 0 29 0 0 0 0 0 0 0 0 0 31 0 0 0 0 
		47 0 0 0 0 0 0 0 40 0 0 0 0 0 0 0 0 0 0 0 0 31 36 0 0 0 0 0 0 26 0 39 34 0 0 23 0 0 0 0 0 0 0 0 0 0 0 0 0 0 0 0 0 0 0 0 0 0 0 0 0 0 0 0 0 0 0 33 0 0 0 0 0 0 0 0 21 0 0 0 0 0 0 0 
		48 0 0 38 0 0 0 0 0 0 0 0 40 0 0 0 0 0 0 0 0 0 0 0 0 0 0 0 0 0 39 0 0 24 0 0 0 0 0 0 0 0 0 0 0 0 0 28 0 0 0 0 0 0 0 0 0 0 0 0 0 0 0 30 0 0 0 0 0 0 0 0 34 0 0 0 0 0 0 0 0 0 0 0 
		49 0 0 0 0 0 0 0 0 0 0 0 0 0 0 0 0 0 0 0 0 0 0 0 0 0 0 0 37 0 0 0 22 0 0 0 0 0 0 28 0 0 0 23 0 0 0 0 0 0 0 0 0 0 0 0 0 0 0 0 0 0 0 0 0 0 0 0 0 33 0 0 0 0 0 0 0 34 0 0 0 27 0 0 
		50 0 0 0 0 0 0 0 0 0 0 0 0 0 0 32 0 0 0 40 0 0 0 0 0 0 0 0 0 0 0 0 0 0 0 0 0 0 0 0 0 0 25 0 0 0 0 0 0 0 0 0 0 0 0 0 0 0 0 0 0 0 0 0 0 0 35 0 0 0 0 0 0 0 0 0 0 0 0 0 0 0 0 0 
		51 30 0 0 0 20 0 0 0 23 0 0 0 0 0 0 0 0 0 25 0 0 0 0 0 0 0 0 0 40 0 0 0 38 0 0 0 0 0 0 0 0 21 0 32 24 0 0 0 0 0 0 0 0 0 0 0 0 37 0 32 0 0 0 0 0 0 0 35 39 35 0 0 0 0 0 0 0 0 0 0 0 0 27 
		52 0 0 0 0 0 0 0 0 0 0 0 0 0 0 0 0 0 0 0 0 0 0 0 0 0 0 0 0 0 31 0 0 0 0 0 0 0 0 31 0 0 0 39 0 0 0 0 0 0 0 0 0 0 0 0 0 0 0 0 0 0 0 0 0 0 0 0 0 0 0 0 0 0 0 0 0 23 0 0 32 0 0 0 
		53 0 0 0 0 0 0 0 0 0 0 0 0 0 0 0 0 0 0 0 0 0 0 0 0 0 0 0 39 0 0 0 0 0 0 0 0 0 0 0 0 0 0 0 0 0 0 31 0 0 0 0 0 0 0 0 0 0 0 0 0 0 0 0 0 0 0 0 0 0 0 0 0 0 32 0 23 0 0 0 0 0 0 0 
		54 0 0 0 0 35 0 0 0 0 0 0 0 0 0 0 0 0 0 0 0 0 35 0 0 0 0 0 0 0 0 0 0 0 0 0 36 0 0 0 0 0 0 0 0 0 0 0 0 0 0 0 0 0 0 0 0 0 0 0 0 0 0 0 0 0 0 0 29 0 0 0 0 27 0 0 0 0 0 0 0 0 30 0 
		55 0 0 0 0 0 0 0 0 0 38 0 0 0 0 0 26 33 0 0 0 0 0 0 0 0 0 0 0 0 0 0 0 37 0 0 0 0 0 0 0 0 0 20 0 0 0 0 0 0 0 0 0 0 0 0 0 0 0 0 0 0 0 0 0 0 0 37 0 39 0 0 0 0 30 0 0 0 0 0 0 0 0 39 
		56 0 0 0 0 0 0 0 29 0 0 0 0 0 0 0 0 0 0 0 34 0 29 38 0 37 0 0 0 0 0 0 0 0 0 28 0 0 0 0 0 24 0 0 28 0 0 33 0 0 0 0 0 0 0 0 0 0 0 23 28 0 0 0 0 0 0 0 0 0 0 0 0 0 0 0 0 0 34 0 0 0 0 0 
		57 0 0 33 0 35 0 0 0 0 0 0 0 0 0 0 0 0 0 0 26 0 40 0 0 0 0 0 0 0 0 0 20 0 0 0 0 0 0 0 0 0 0 28 0 0 0 0 0 0 0 0 37 0 0 0 0 0 0 21 0 0 0 24 0 0 0 0 0 22 0 0 0 0 0 32 28 0 0 0 0 0 0 0 
		58 0 0 0 0 0 0 0 0 0 39 25 0 0 0 0 27 23 0 0 0 0 0 0 0 30 27 0 0 0 0 0 0 30 0 0 0 0 0 30 0 0 0 0 0 0 0 0 0 0 0 0 0 0 0 0 0 23 21 0 0 0 0 0 0 0 39 0 0 25 0 0 0 0 0 0 23 0 0 0 29 23 0 0 
		59 0 0 0 0 0 0 26 0 29 0 0 0 0 0 0 0 0 0 0 0 0 0 0 0 0 0 31 0 0 0 24 0 0 27 0 0 0 0 0 0 0 0 0 35 36 0 0 0 0 0 0 32 0 0 0 0 28 0 0 0 0 0 0 0 0 0 0 0 0 0 0 0 0 0 0 0 0 0 0 0 0 31 0 
		60 29 0 0 0 0 0 0 0 0 0 0 0 0 0 0 0 0 0 0 0 0 0 0 0 0 0 0 0 0 0 0 0 0 37 0 0 0 0 0 0 0 0 0 0 0 0 0 0 0 0 0 0 0 0 0 0 0 0 0 0 0 0 0 0 0 0 0 0 0 22 39 0 0 0 0 0 0 0 20 0 40 0 0 
		61 0 0 0 0 25 0 0 0 0 0 0 0 30 0 0 39 0 0 40 0 0 0 0 0 0 0 0 0 0 0 0 0 0 0 0 0 0 0 21 0 0 0 0 0 0 0 0 0 0 0 0 0 0 0 0 0 0 0 0 0 0 0 0 0 23 0 0 29 0 0 0 0 0 37 0 24 37 21 0 0 0 40 24 
		62 0 0 0 0 0 0 0 0 0 0 0 0 0 0 21 0 0 0 0 0 0 0 0 0 0 0 0 0 0 0 0 24 29 0 0 0 0 0 0 0 0 0 0 0 0 0 0 0 30 0 0 0 0 0 0 0 0 24 0 0 0 0 0 35 0 0 29 0 0 0 0 0 0 0 0 0 0 0 0 32 0 0 0 
		63 0 0 0 0 0 0 0 0 0 38 0 0 0 0 0 39 0 0 0 0 0 0 0 0 0 0 0 0 0 0 0 0 0 0 0 0 0 0 0 0 0 0 0 0 23 0 0 0 0 0 0 0 0 0 0 0 0 0 0 0 0 0 35 0 0 0 0 0 0 39 0 0 0 0 0 0 0 0 0 0 34 39 0 
		64 0 0 0 0 0 0 0 0 0 0 0 0 0 0 0 0 0 0 30 0 0 0 0 0 0 0 0 0 0 0 0 0 0 0 0 0 0 0 0 0 0 0 0 0 0 0 0 0 0 0 0 0 0 0 0 0 0 0 0 0 0 23 0 0 0 0 0 0 0 0 0 0 0 34 0 0 0 0 0 0 0 0 0 
		65 0 0 0 0 0 0 0 0 0 0 0 0 0 0 0 0 0 0 0 0 0 0 0 0 0 0 0 0 0 0 0 0 33 0 0 0 0 0 0 38 0 0 0 0 0 0 0 0 0 0 35 0 0 0 0 0 0 0 39 0 0 0 0 0 0 0 0 25 38 27 0 34 0 0 0 0 0 0 25 0 0 0 0 
		66 0 0 0 0 0 0 0 0 38 0 23 21 24 0 0 0 0 0 0 0 20 0 36 0 22 0 28 0 0 28 0 0 38 0 0 0 28 0 0 0 0 37 0 0 26 0 0 33 0 0 0 0 0 0 0 37 0 0 0 0 0 0 29 0 0 0 0 0 0 0 0 0 0 0 0 35 0 0 0 20 0 27 0 
		67 0 0 0 0 0 0 0 0 0 0 0 0 0 0 0 0 26 0 0 0 0 0 0 0 0 0 0 30 0 29 0 0 0 0 0 24 0 0 0 0 25 0 0 0 0 0 0 0 0 0 0 35 0 0 29 0 0 0 0 0 0 29 0 0 0 25 0 0 0 0 0 0 0 0 0 0 0 0 0 0 24 0 0 
		68 0 0 20 0 31 0 0 0 0 0 0 0 0 0 0 0 0 0 0 26 0 0 0 0 0 0 0 38 0 0 39 0 0 0 0 0 0 0 0 0 0 0 32 0 0 0 29 0 0 33 0 39 0 0 0 39 0 22 25 0 0 0 0 0 0 38 0 0 0 0 0 39 0 0 0 25 0 0 0 31 0 0 0 
		69 0 0 33 37 0 40 0 0 39 0 0 0 0 0 0 0 0 0 23 0 0 0 0 0 0 0 0 0 0 0 0 0 0 36 0 0 0 0 0 0 0 0 0 0 0 0 0 0 0 0 0 35 0 0 0 0 0 0 0 0 22 0 0 39 0 27 0 0 0 0 0 0 0 0 0 0 0 20 0 0 34 0 0 
		70 27 35 0 0 0 0 0 0 26 21 0 0 0 0 0 0 0 0 25 0 0 0 20 0 0 0 0 0 0 0 0 0 0 0 0 0 0 0 0 0 0 0 0 22 0 0 0 0 0 0 0 0 0 0 0 0 0 0 0 0 39 0 0 0 0 0 0 0 0 0 0 0 0 0 0 0 0 0 0 0 36 0 0 
		71 0 0 0 0 0 0 28 0 21 0 0 0 0 0 0 0 0 0 0 0 0 0 0 0 0 0 0 0 0 0 0 0 0 0 0 0 40 0 0 0 0 0 0 0 0 0 0 0 34 0 0 0 0 0 0 0 0 0 0 0 0 0 0 0 0 34 0 0 39 0 0 0 0 0 0 0 0 0 0 34 0 0 0 
		72 0 39 0 0 0 0 0 40 0 0 0 0 0 0 0 0 0 0 0 36 0 35 0 0 0 0 0 0 0 0 0 33 0 0 0 0 0 0 0 0 0 0 0 0 0 0 0 0 0 0 0 0 0 0 27 0 0 0 0 0 0 0 0 0 0 0 0 0 0 0 0 0 0 0 0 0 38 21 0 0 0 29 0 
		73 0 0 35 23 0 0 0 0 0 0 0 0 0 0 0 26 0 0 0 0 0 0 0 0 32 0 0 0 0 0 0 0 0 0 0 0 0 0 0 0 0 0 0 35 0 0 0 0 0 0 0 0 0 32 0 30 0 0 0 0 0 37 0 0 34 0 0 0 0 0 0 0 0 0 0 0 0 0 0 0 0 0 0 
		74 0 0 0 0 0 0 0 0 0 0 0 0 0 0 0 0 0 0 0 0 0 0 0 0 0 0 0 0 0 0 0 0 0 0 32 0 0 0 0 0 0 0 34 0 0 0 0 0 0 0 0 0 0 0 0 0 0 32 0 0 0 0 0 0 0 0 0 0 0 0 0 0 0 0 0 30 0 0 0 0 0 0 0 
		75 0 0 0 0 0 0 0 0 0 0 0 0 0 0 0 0 0 0 0 0 0 0 0 30 0 0 0 21 0 0 0 33 0 0 21 0 0 0 0 0 35 0 22 0 38 0 0 21 0 0 0 0 0 23 0 0 0 28 23 0 0 24 0 0 0 0 35 0 25 0 0 0 0 0 30 0 33 0 0 0 0 0 0 
		76 0 0 0 0 0 0 0 0 27 0 0 0 0 0 36 27 0 0 0 0 0 32 33 0 0 0 0 0 0 0 0 27 28 0 0 0 0 0 0 0 34 22 35 0 0 0 0 0 0 34 0 0 23 0 0 0 0 0 0 0 0 37 0 0 0 0 0 0 0 0 0 0 38 0 0 33 0 0 0 0 37 0 0 
		77 0 0 0 0 0 0 0 32 0 0 0 0 0 0 0 0 0 0 0 0 0 0 0 0 0 0 0 0 0 0 0 0 0 0 0 0 0 39 0 0 0 0 0 0 0 0 0 0 0 0 0 0 0 0 0 0 34 0 0 0 0 21 0 0 0 0 0 0 0 20 0 0 21 0 0 0 0 0 0 0 0 0 0 
		78 0 0 0 0 0 0 0 0 29 0 0 27 0 35 0 0 0 0 0 0 0 0 0 0 0 0 28 0 0 0 0 0 0 0 0 0 0 0 37 0 0 0 0 21 28 35 31 0 0 0 0 0 0 0 0 0 0 0 0 0 20 0 0 0 0 25 0 0 0 0 0 0 0 0 0 0 0 0 0 0 0 0 0 
		79 0 0 0 0 0 0 0 39 0 0 0 0 0 0 0 0 0 0 0 0 25 0 0 0 0 0 0 0 0 23 0 0 0 0 0 0 0 0 0 0 0 0 0 0 0 0 0 0 0 0 0 0 32 0 0 0 0 0 29 0 0 0 32 0 0 0 20 0 31 0 0 34 0 0 0 0 0 0 0 0 28 0 0 
		80 0 0 32 29 0 0 22 0 0 0 0 20 0 0 0 0 28 0 0 0 0 0 0 0 0 0 0 0 0 24 0 0 0 0 0 0 32 0 0 0 0 0 0 0 35 0 0 0 0 27 0 0 0 0 0 0 0 0 23 0 40 0 0 34 0 0 0 24 0 34 36 0 0 0 0 0 37 0 0 28 0 0 0 
		81 33 0 40 0 0 0 0 0 0 0 0 0 0 0 27 30 0 0 0 38 0 0 0 0 0 20 0 0 0 0 0 0 0 0 40 38 0 0 0 0 0 0 0 0 33 0 0 0 0 0 0 0 0 0 30 0 0 0 0 31 0 40 0 39 0 0 27 0 0 0 0 0 29 0 0 0 0 0 0 0 0 0 0 
		82 0 0 0 0 0 0 40 0 0 24 0 0 0 24 25 0 0 0 0 0 0 0 0 0 0 0 0 0 0 0 0 0 0 0 0 0 0 0 0 0 0 0 0 0 0 0 0 0 0 0 0 27 0 0 0 39 0 0 0 0 0 24 0 0 0 0 0 0 0 0 0 0 0 0 0 0 0 0 0 0 0 0 0 
;
